
Gurobi 6.5.2 (win64) logging started 07/22/16 21:12:23


Gurobi 6.5.2 (win64) logging started 07/22/16 21:12:23

Optimize a model with 635 rows, 148 columns and 1520 nonzeros
Coefficient statistics:
  Matrix range    [1e+00, 4e+02]
  Objective range [2e+00, 4e+02]
  Bounds range    [1e+00, 1e+00]
  RHS range       [1e+00, 1e+03]
Presolve removed 579 rows and 56 columns
Presolve time: 0.00s
Presolved: 56 rows, 92 columns, 332 nonzeros
Variable types: 0 continuous, 92 integer (92 binary)

Root relaxation: objective 1.022000e+03, 35 iterations, 0.00 seconds

    Nodes    |    Current Node    |     Objective Bounds      |     Work
 Expl Unexpl |  Obj  Depth IntInf | Incumbent    BestBd   Gap | It/Node Time

*    0     0               0    1022.0000000 1022.00000  0.00%     -    0s

Explored 0 nodes (35 simplex iterations) in 0.00 seconds
Thread count was 8 (of 8 available processors)

Optimal solution found (tolerance 1.00e-04)
Best objective 1.022000000000e+03, best bound 1.022000000000e+03, gap 0.0%

Wrote requested result file 'H1\instance8\\Results8SG_Sol2.lp'

